c Cardinality constraint <=k(x_1,...,x_n) for k = 9 and n = 9.
c Adders are encoded using implications.
c The numbers of clauses and variables on the next line are just upper bounds!
p cnf 25 47
1 2 -3 10 0
1 -2 3 10 0
-1 2 3 10 0
-1 -2 -3 10 0
-1 -2 11 0
-1 -3 11 0
-2 -3 11 0
4 5 -6 12 0
4 -5 6 12 0
-4 5 6 12 0
-4 -5 -6 12 0
-4 -5 13 0
-4 -6 13 0
-5 -6 13 0
10 12 -7 14 0
10 -12 7 14 0
-10 12 7 14 0
-10 -12 -7 14 0
-10 -12 15 0
-10 -7 15 0
-12 -7 15 0
11 13 -15 16 0
11 -13 15 16 0
-11 13 15 16 0
-11 -13 -15 16 0
-11 -13 17 0
-11 -15 17 0
-13 -15 17 0
14 8 -9 18 0
14 -8 9 18 0
-14 8 9 18 0
-14 -8 -9 18 0
-14 -8 19 0
-14 -9 19 0
-8 -9 19 0
16 -19 20 0
-16 19 20 0
-16 -19 21 0
17 -21 22 0
-17 21 22 0
-17 -21 23 0
-20 -23 0
-22 -23 0
